NAME: CMT2_7
TYPE: CVRP
COMMENT: 835.26 - Cluster Nr.7
DIMENSION: 8
CAPACITY: 140
EDGE_WEIGHT_TYPE: EUC_2D
NODE_COORD_TYPE: TWOD_COORDS
NODE_COORD_SECTION: 
3 55 45
4 50 40
8 51 42
1 40 40
5 50 30
2 62 35
7 55 34
6 54 38
DEPOT_SECTION: 
1
-1
DEMAND_SECTION: 
6 19
5 21
2 12
4 19
8 27
7 17
3 16
1 0
EOF
